num_teams = 8;
cost = [|0,17,1,35,21,17,24,48,
|26,0,1,32,19,5,37,12,
|24,43,0,14,37,40,4,26,
|43,36,33,0,46,16,38,10,
|43,38,39,36,0,2,37,6,
|18,39,29,47,8,0,25,14,
|6,6,30,10,13,22,0,19,
|16,37,46,37,17,49,3,0,
|];